Maximize

29.5 b0 + 151.5 b1 + 10 b2


Subject to

\ === tcfg constraints ===
dSta_0 = 1
b0 - dSta_0 = 0
b0 - d0_1 = 0
b1 - d0_1 = 0
b1 - d1_2 = 0
b2 - d1_2 = 0


\ === header constraints ===



\ === context constraints ===



\ === inst cache constraints ===



\ === data cache constraints ===



Generals


b0
b1
b2
d0_1
d1_2
dSta_0


End
\ total cons: 6    total vars: 6
